
Gurobi 12.0.2 (win64) logging started Sun Jun  8 11:32:41 2025

Set parameter LogFile to value "C:\Ioana\_uni\honours\slp\algorithm\Main_files\results\others\prox_tubules_new_model\Task_004_Sample004_irr_gurobi.log"
Gurobi Optimizer version 12.0.2 build v12.0.2rc0 (win64 - Windows 11.0 (26100.2))

CPU model: Intel(R) Core(TM) Ultra 5 125H, instruction set [SSE2|AVX|AVX2]
Thread count: 14 physical cores, 18 logical processors, using up to 18 threads

Non-default parameters:
TimeLimit  2200

Optimize a model with 47226 rows, 34499 columns and 146686 nonzeros
Model fingerprint: 0x86e4bdc0
Variable types: 17254 continuous, 17245 integer (17245 binary)
Coefficient statistics:
  Matrix range     [1e-04, 8e+04]
  Objective range  [1e-04, 3e+00]
  Bounds range     [1e+00, 1e+03]
  RHS range        [1e+00, 1e+00]
Presolve removed 30817 rows and 21541 columns
Presolve time: 0.32s
Presolved: 16409 rows, 12958 columns, 54601 nonzeros
Variable types: 6412 continuous, 6546 integer (6546 binary)

Root relaxation: objective 5.079508e-02, 926 iterations, 0.06 seconds (0.07 work units)

    Nodes    |    Current Node    |     Objective Bounds      |     Work
 Expl Unexpl |  Obj  Depth IntInf | Incumbent    BestBd   Gap | It/Node Time

     0     0    0.05080    0   10          -    0.05080      -     -    0s
H    0     0                       2.2846179    0.05080  97.8%     -    0s
H    0     0                       2.0214600    0.05080  97.5%     -    0s
     0     0    1.71580    0   18    2.02146    1.71580  15.1%     -    0s
     0     0    1.97843    0   26    2.02146    1.97843  2.13%     -    1s
     0     0    1.97843    0   23    2.02146    1.97843  2.13%     -    1s
     0     0    1.97851    0   21    2.02146    1.97851  2.12%     -    1s
     0     0    1.98168    0   29    2.02146    1.98168  1.97%     -    1s
     0     0    1.98168    0    4    2.02146    1.98168  1.97%     -    1s
     0     0     cutoff    0         2.02146    2.02146  0.00%     -    1s

Cutting planes:
  Gomory: 1
  MIR: 6
  Flow cover: 6
  Flow path: 7
  Network: 3

Explored 1 nodes (3933 simplex iterations) in 1.41 seconds (1.41 work units)
Thread count was 18 (of 18 available processors)

Solution count 2: 2.02146 2.28462 

Optimal solution found (tolerance 1.00e-04)
Best objective 2.021460048053e+00, best bound 2.021460048053e+00, gap 0.0000%
